sf 20 2 33 99999
2 2 2 2 2 2 2 2 2 2 2 2 2 2 2 2 2 2 2 2
2 2 3 0 4
0 0 81
0 1 37
1 0 17
1 1 0
2 3 3 0 4
0 0 57
0 1 24
1 0 76
1 1 90
2 0 7 0 4
0 0 59
0 1 46
1 0 38
1 1 26
2 2 10 0 4
0 0 56
0 1 38
1 0 56
1 1 94
2 2 2 0 4
0 0 19
0 1 11
1 0 74
1 1 44
2 1 2 0 4
0 0 27
0 1 60
1 0 90
1 1 71
2 2 3 0 4
0 0 17
0 1 98
1 0 7
1 1 29
2 0 0 0 4
0 0 4
0 1 30
1 0 5
1 1 35
2 3 12 0 4
0 0 7
0 1 5
1 0 59
1 1 77
2 6 18 0 4
0 0 59
0 1 76
1 0 35
1 1 18
2 3 19 0 4
0 0 51
0 1 28
1 0 0
1 1 94
2 1 12 0 4
0 0 72
0 1 4
1 0 82
1 1 53
2 2 17 0 4
0 0 12
0 1 88
1 0 7
1 1 96
2 0 3 0 4
0 0 48
0 1 21
1 0 68
1 1 56
2 2 4 0 4
0 0 64
0 1 56
1 0 1
1 1 44
2 6 15 0 4
0 0 37
0 1 4
1 0 67
1 1 2
2 3 5 0 4
0 0 90
0 1 96
1 0 9
1 1 63
2 0 16 0 4
0 0 62
0 1 75
1 0 68
1 1 72
2 2 13 0 4
0 0 36
0 1 67
1 0 70
1 1 70
2 3 4 0 4
0 0 68
0 1 44
1 0 70
1 1 16
2 0 8 0 4
0 0 80
0 1 55
1 0 28
1 1 74
2 0 1 0 4
0 0 1
0 1 45
1 0 51
1 1 28
2 2 14 0 4
0 0 64
0 1 77
1 0 5
1 1 49
2 0 8 0 4
0 0 49
0 1 29
1 0 29
1 1 57
2 3 3 0 4
0 0 19
0 1 81
1 0 72
1 1 41
2 0 1 0 4
0 0 80
0 1 42
1 0 28
1 1 62
2 1 2 0 4
0 0 43
0 1 50
1 0 59
1 1 96
2 0 9 0 4
0 0 47
0 1 88
1 0 1
1 1 51
2 1 3 0 4
0 0 61
0 1 80
1 0 99
1 1 19
2 0 2 0 4
0 0 12
0 1 12
1 0 96
1 1 85
2 0 11 0 4
0 0 30
0 1 30
1 0 0
1 1 9
2 1 6 0 4
0 0 18
0 1 30
1 0 71
1 1 62
2 0 2 0 4
0 0 46
0 1 55
1 0 25
1 1 98
